Route 1: 28 26 21 40 2 37 13 18
Route 2: 50 33 20 30 9 35 34 3
Route 3: 42 43 15 41 4 25
Route 4: 14 44 38 16 17 5
Route 5: 45 46 8 10 32 19
Route 6: 39 23 22 29 24 12
Route 7: 36 11 47 49 48 7 31 1
Route 8: 27 6
Vehicles: 8
Distance: 888.54
